c FILE: i080-303

c SOURCE: From steinlib

c DESCRIPTION: Steinlib instance with 80 nodes and 120 edges.

p edge 80 120
e 1 14
e 1 25
e 1 27
e 1 32
e 1 44
e 1 63
e 1 72
e 2 39
e 2 52
e 3 69
e 4 61
e 5 13
e 5 32
e 5 66
e 6 10
e 6 12
e 6 35
e 7 60
e 8 30
e 8 36
e 8 39
e 8 41
e 8 44
e 8 47
e 9 42
e 9 46
e 9 47
e 10 18
e 10 20
e 11 13
e 11 26
e 11 58
e 12 37
e 12 48
e 12 66
e 13 27
e 13 47
e 13 66
e 13 73
e 14 54
e 14 74
e 15 31
e 15 36
e 16 19
e 16 43
e 16 62
e 16 68
e 16 73
e 17 27
e 19 50
e 20 53
e 21 31
e 21 55
e 21 67
e 22 25
e 23 48
e 24 40
e 24 71
e 24 77
e 25 55
e 25 60
e 25 69
e 26 46
e 26 53
e 26 64
e 26 72
e 27 38
e 27 42
e 27 49
e 27 52
e 28 35
e 29 40
e 29 75
e 29 79
e 30 43
e 30 57
e 31 41
e 31 47
e 31 62
e 31 75
e 33 72
e 34 37
e 34 55
e 35 40
e 36 65
e 37 60
e 37 64
e 38 41
e 38 65
e 40 59
e 40 78
e 43 46
e 45 47
e 45 73
e 46 47
e 47 57
e 47 65
e 47 67
e 48 50
e 48 63
e 51 75
e 52 59
e 52 61
e 55 56
e 55 71
e 57 78
e 59 60
e 59 61
e 60 74
e 62 63
e 62 80
e 63 73
e 66 70
e 69 74
e 69 78
e 71 77
e 72 75
e 74 76
e 74 80
e 75 80
